language ESSENCE' 1.0
$ loaded file: carseqdata/csplib-instance-40
letting numcars=200
letting numclasses=26
letting numoptions=5
letting optMax=[1, 2, 1, 2, 1]
letting windowSize=[2, 3, 3, 5, 5]
letting numberPerClass=[6, 8, 48, 12, 1, 15, 17, 3, 10, 6, 1, 8, 4, 1, 1, 5, 3, 1, 15, 19, 3, 2, 1, 1, 1, 8]
letting optionsRequired=[[1, 0, 1, 0, 0], [1, 0, 0, 1, 0], [0, 1, 0, 0, 0], [0, 1, 0, 1, 0], [1, 0, 0, 1, 1], [1, 1, 0, 0, 0], [0, 0, 1, 0, 0], [1, 1, 1, 1, 0], [0, 0, 0, 0, 1], [0, 1, 1, 0, 0], [1, 0, 1, 0, 1], [1, 1, 0, 1, 0], [0, 0, 1, 0, 1], [1, 1, 0, 0, 1], [1, 1, 1, 0, 1], [0, 0, 1, 1, 0], [1, 0, 0, 0, 1], [0, 0, 0, 1, 1], [0, 0, 0, 1, 0], [1, 0, 0, 0, 0], [0, 1, 1, 1, 0], [1, 0, 1, 1, 0], [1, 1, 0, 1, 1], [1, 1, 1, 0, 0], [0, 0, 1, 0, 1], [0, 1, 0, 0, 0]]
